************************************************************************
file with basedata            : cr133_.bas
initial value random generator: 975732756
************************************************************************
projects                      :  1
jobs (incl. supersource/sink ):  18
horizon                       :  118
RESOURCES
  - renewable                 :  1   R
  - nonrenewable              :  2   N
  - doubly constrained        :  0   D
************************************************************************
PROJECT INFORMATION:
pronr.  #jobs rel.date duedate tardcost  MPM-Time
    1     16      0       22        7       22
************************************************************************
PRECEDENCE RELATIONS:
jobnr.    #modes  #successors   successors
   1        1          3           2   3   4
   2        3          3           6  12  16
   3        3          3           5  16  17
   4        3          2           7  13
   5        3          2          10  12
   6        3          3           8   9  10
   7        3          3          12  14  16
   8        3          2          11  14
   9        3          2          11  14
  10        3          1          13
  11        3          2          13  17
  12        3          1          15
  13        3          1          15
  14        3          2          15  17
  15        3          1          18
  16        3          1          18
  17        3          1          18
  18        1          0        
************************************************************************
REQUESTS/DURATIONS:
jobnr. mode duration  R 1  N 1  N 2
------------------------------------------------------------------------
  1      1     0       0    0    0
  2      1     2       0    9    6
         2     3       7    6    6
         3     4       0    5    4
  3      1     3       0   10    8
         2     4       3    5    7
         3     7       2    5    5
  4      1     3       0    2    5
         2     5       6    1    4
         3     5       0    2    4
  5      1     4       0   10   10
         2     5       0    9    9
         3     7       0    8    9
  6      1     2       0    7    4
         2     3       0    7    3
         3     4       4    6    2
  7      1     2       2    2    5
         2     3       0    2    4
         3    10       1    2    2
  8      1     8       4    6    4
         2     9       0    6    3
         3     9       1    6    2
  9      1     1       0    4    6
         2     2       5    2    6
         3     4       3    2    6
 10      1     1       5    7   10
         2     7       0    7    6
         3     7       4    5    5
 11      1     2       4    8    5
         2     6       4    6    5
         3     9       4    4    2
 12      1     5       0    7    5
         2     6       1    7    3
         3     9       0    6    2
 13      1     5       0    6   10
         2     7       6    5    8
         3    10       6    4    7
 14      1     5       7    8   10
         2     6       0    5    8
         3    10       0    5    5
 15      1     1       0    3    8
         2     3       0    3    6
         3     6       5    2    5
 16      1     2       5    5   10
         2     3       0    4    8
         3    10       3    4    7
 17      1     5       7    9    6
         2     6       0    8    6
         3     7       0    6    4
 18      1     0       0    0    0
************************************************************************
RESOURCEAVAILABILITIES:
  R 1  N 1  N 2
    8   79   81
************************************************************************
